experiment/data/hgs-res/Vrp-Set-Li-n641/Vrp-Set-Li-n641-hgs/0.hgs1.tour
Route #1: 24 64 63 62 102 103 104 144 184 185 225 265 305 345 385 425 465 505 545 585 625 624 584 544 504 464 424 384 344 304 264 224 223 263 303 343 383 423 463 503 543 583 623 622 582 542 502 462 422 382 342 302 262 222 182 183 143 142 141 140 100 101 61 60 20 21 22 23
Route #2: 27 26 25 65 66 67 107 106 105 145 146 147 148 188 187 186 226 266 306 346 386 426 466 506 546 586 626 627 587 547 507 467 427 387 347 307 267 227 228 268 308 348 388 428 468 508 548 588 628 629 589 549 509 469 429 389 349 309 269 229 189 149 109 108 68 28
Route #3: 29 69 70 110 150 190 230 270 310 350 390 430 470 510 550 590 630 631 591 551 511 471 431 391 351 311 271 231 191 151 152 112 111 71 31 30
Route #4: 33 32 72 73 113 153 193 192 232 272 312 352 392 432 472 512 552 592 632 633 593 553 513 473 433 393 353 313 273 233 234 274 314 354 394 434 474 514 554 594 634 635 595 555 515 475 435 395 355 315 275 235 236 276 316 356 396 436 476 516 556 596 636 637 597 557 517 477 437 397 357 317 277 237 197 196 195 194 154 114 74 34
Route #5: 38 39 79 78 118 119 159 199 200 161 201 241 281 321 361 401 441 481 521 561 601 640 600 560 520 480 440 400 360 320 280 240 239 279 319 359 399 439 479 519 559 599 639 638 598 558 518 478 438 398 358 318 278 238 198 158 157 156 155 115 116 117 77 76 75 35 36 37
Route #6: 4 44 43 42 82 83 84 124 164 165 205 245 285 325 365 405 445 485 525 565 605 604 564 524 484 444 404 364 324 284 244 204 203 243 283 323 363 403 443 483 523 563 603 602 562 522 482 442 402 362 322 282 242 202 162 163 123 122 121 160 120 81 41 80 40 1 2 3
Route #7: 7 6 5 45 46 47 87 86 85 125 126 127 128 168 167 166 206 246 286 326 366 406 446 486 526 566 606 607 567 527 487 447 407 367 327 287 247 207 208 248 288 328 368 408 448 488 528 568 608 609 569 529 489 449 409 369 329 289 249 209 169 129 89 88 48 8
Route #8: 9 49 50 90 130 170 210 250 290 330 370 410 450 490 530 570 610 611 571 531 491 451 411 371 331 291 251 211 171 131 132 92 91 51 11 10
Route #9: 14 54 94 134 174 175 176 177 217 257 297 337 377 417 457 497 537 577 617 616 576 536 496 456 416 376 336 296 256 216 215 255 295 335 375 415 455 495 535 575 615 614 574 534 494 454 414 374 334 294 254 214 213 253 293 333 373 413 453 493 533 573 613 612 572 532 492 452 412 372 332 292 252 212 172 173 133 93 53 52 12 13
Route #10: 17 16 15 55 56 57 97 96 95 135 136 137 138 178 218 258 298 338 378 418 458 498 538 578 618 619 579 539 499 459 419 379 339 299 259 219 220 260 300 340 380 420 460 500 540 580 620 621 581 541 501 461 421 381 341 301 261 221 181 180 179 139 99 98 58 59 19 18
Cost 18801.1
